p cnf 59 67
-1 53 55 0 
-2 56 0 
-3 56 0 
-4 -5 55 0 
-6 56 0 
-7 56 0 
-8 42 55 0 
-9 32 56 0 
-10 14 56 0 
-11 37 51 56 0 
-12 -13 55 0 
-14 10 -13 55 0 
-15 -13 55 0 
-16 -13 55 0 
-17 -13 55 0 
-18 55 0 
-16 55 0 
-17 56 0 
-19 55 0 
-4 55 0 
-20 -21 55 0 
-22 55 0 
-23 55 0 
-24 27 43 55 0 
-23 -13 55 0 
-25 55 0 
-14 10 55 0 
-12 55 0 
-2 -26 39 -24 27 43 57 0 
-26 39 57 0 
-27 24 43 57 0 
-4 -26 39 -28 57 0 
-29 57 0 
-7 -2 55 0 
-30 -7 55 0 
-7 55 0 
-31 55 0 
-32 9 58 59 0 
-33 -34 55 0 
-32 9 55 0 
-35 49 -33 56 0 
-36 -37 11 51 55 0 
-38 55 0 
-39 26 -6 56 0 
-40 56 0 
-41 45 47 56 0 
-23 -13 57 0 
-13 57 0 
-13 55 0 
-42 8 56 0 
-43 24 27 55 0 
-44 55 0 
-45 41 47 56 0 
-39 26 56 0 
-35 49 -4 56 0 
-2 55 0 
-46 56 0 
-6 55 0 
-47 41 45 -48 55 0 
-49 35 58 59 0 
-50 55 0 
-33 -51 11 37 55 0 
-4 -52 55 0 
-53 1 58 59 0 
-54 55 0 
-17 55 0 
-39 26 55 0 
